CPXPARAM_Read_DataCheck                          1
Found incumbent of value 0.000000 after 0.00 sec. (0.05 ticks)
Tried aggregator 1 time.
MIP Presolve eliminated 2 rows and 0 columns.
MIP Presolve modified 1 coefficients.
Reduced MIP has 229 rows, 2010 columns, and 9630 nonzeros.
Reduced MIP has 2010 binaries, 0 generals, 0 SOSs, and 0 indicators.
Presolve time = 0.00 sec. (3.62 ticks)
Probing time = 0.00 sec. (1.61 ticks)
Tried aggregator 1 time.
Reduced MIP has 229 rows, 2010 columns, and 9630 nonzeros.
Reduced MIP has 2010 binaries, 0 generals, 0 SOSs, and 0 indicators.
Presolve time = 0.00 sec. (4.09 ticks)
Probing time = 0.00 sec. (1.61 ticks)
Clique table members: 2000.
MIP emphasis: balance optimality and feasibility.
MIP search method: dynamic search.
Parallel mode: deterministic, using up to 4 threads.
Root relaxation solution time = 0.02 sec. (6.41 ticks)

        Nodes                                         Cuts/
   Node  Left     Objective  IInf  Best Integer    Best Bound    ItCnt     Gap

*     0+    0                            0.0000    12422.0000              --- 
      0     0     7074.5400    10        0.0000     7074.5400      438     --- 
      0     0     5343.2657   201        0.0000     Cuts: 157     1104     --- 
*     0+    0                         4472.0000     5343.2657            19.48%
      0     0     4999.4778   412     4472.0000     Cuts: 157     1885   11.80%
      0     0        cutoff           4472.0000     4472.0000     2890    0.00%
Elapsed time = 0.42 sec. (248.35 ticks, tree = 0.01 MB, solutions = 2)

Clique cuts applied:  372
Cover cuts applied:  3
Mixed integer rounding cuts applied:  39
Zero-half cuts applied:  4

Root node processing (before b&c):
  Real time             =    0.42 sec. (248.49 ticks)
Parallel b&c, 4 threads:
  Real time             =    0.00 sec. (0.00 ticks)
  Sync time (average)   =    0.00 sec.
  Wait time (average)   =    0.00 sec.
                          ------------
Total (root+branch&cut) =    0.42 sec. (248.49 ticks)
